language Essence 1.3

letting class be
        function(1 --> 5, 2 --> 4, 3 --> 6, 4 --> 9, 5 --> 10, 6 --> 8, 7 --> 2, 8 --> 8, 9 --> 2, 10 --> 3, 11 --> 1,
                 12 --> 5, 13 --> 2, 14 --> 9, 15 --> 8, 16 --> 8, 17 --> 9, 18 --> 7, 19 --> 5, 20 --> 7, 21 --> 4,
                 22 --> 9, 23 --> 3, 24 --> 9, 25 --> 3, 26 --> 6)
letting deck_length be 92
letting deck_width be 16
letting length be
        function(1 --> 1, 2 --> 1, 3 --> 1, 4 --> 1, 5 --> 1, 6 --> 7, 7 --> 1, 8 --> 1, 9 --> 16, 10 --> 2, 11 --> 1,
                 12 --> 1, 13 --> 1, 14 --> 1, 15 --> 1, 16 --> 8, 17 --> 1, 18 --> 6, 19 --> 1, 20 --> 1, 21 --> 1,
                 22 --> 1, 23 --> 1, 24 --> 1, 25 --> 2, 26 --> 1)
letting n_classes be 10
letting n_containers be 26
letting separation be function({5, 6} --> 84)
letting width be
        function(1 --> 1, 2 --> 15, 3 --> 15, 4 --> 15, 5 --> 9, 6 --> 16, 7 --> 12, 8 --> 6, 9 --> 16, 10 --> 2,
                 11 --> 13, 12 --> 12, 13 --> 1, 14 --> 12, 15 --> 4, 16 --> 15, 17 --> 8, 18 --> 14, 19 --> 1,
                 20 --> 2, 21 --> 11, 22 --> 1, 23 --> 7, 24 --> 14, 25 --> 9, 26 --> 12)
